27 27
21
3 3 24 19
3 4 18 23
3 5 24 22
3 6 21 21
3 7 11 0
3 8 4 10
3 9 4 18
3 10 4 0
3 11 18 0
3 12 18 11
3 19 24 0
3 20 11 7
3 21 21 0
4 3 7 24
4 4 7 0
4 6 7 4
4 7 14 20
4 8 0 19
4 14 7 10
4 19 0 0
4 20 14 0
